c Generated by SAT Solver
p cnf 8004 1776
101 102 103 104 0
201 202 203 204 0
301 302 303 304 0
401 402 403 404 0
501 502 503 504 0
601 602 603 604 0
701 702 703 704 0
801 802 803 804 0
901 902 903 904 0
1001 1002 1003 1004 0
1101 1102 1103 1104 0
1201 1202 1203 1204 0
1301 1302 1303 1304 0
1401 1402 1403 1404 0
1501 1502 1503 1504 0
1601 1602 1603 1604 0
1701 1702 1703 1704 0
1801 1802 1803 1804 0
1901 1902 1903 1904 0
2001 2002 2003 2004 0
2101 2102 2103 2104 0
2201 2202 2203 2204 0
2301 2302 2303 2304 0
2401 2402 2403 2404 0
2501 2502 2503 2504 0
2601 2602 2603 2604 0
2701 2702 2703 2704 0
2801 2802 2803 2804 0
2901 2902 2903 2904 0
3001 3002 3003 3004 0
3101 3102 3103 3104 0
3201 3202 3203 3204 0
3301 3302 3303 3304 0
3401 3402 3403 3404 0
3501 3502 3503 3504 0
3601 3602 3603 3604 0
3701 3702 3703 3704 0
3801 3802 3803 3804 0
3901 3902 3903 3904 0
4001 4002 4003 4004 0
4101 4102 4103 4104 0
4201 4202 4203 4204 0
4301 4302 4303 4304 0
4401 4402 4403 4404 0
4501 4502 4503 4504 0
4601 4602 4603 4604 0
4701 4702 4703 4704 0
4801 4802 4803 4804 0
4901 4902 4903 4904 0
5001 5002 5003 5004 0
5101 5102 5103 5104 0
5201 5202 5203 5204 0
5301 5302 5303 5304 0
5401 5402 5403 5404 0
5501 5502 5503 5504 0
5601 5602 5603 5604 0
5701 5702 5703 5704 0
5801 5802 5803 5804 0
5901 5902 5903 5904 0
6001 6002 6003 6004 0
6101 6102 6103 6104 0
6201 6202 6203 6204 0
6301 6302 6303 6304 0
6401 6402 6403 6404 0
6501 6502 6503 6504 0
6601 6602 6603 6604 0
6701 6702 6703 6704 0
6801 6802 6803 6804 0
6901 6902 6903 6904 0
7001 7002 7003 7004 0
7101 7102 7103 7104 0
7201 7202 7203 7204 0
7301 7302 7303 7304 0
7401 7402 7403 7404 0
7501 7502 7503 7504 0
7601 7602 7603 7604 0
7701 7702 7703 7704 0
7801 7802 7803 7804 0
7901 7902 7903 7904 0
8001 8002 8003 8004 0
-101 -102 0
-101 -103 0
-101 -104 0
-102 -103 0
-102 -104 0
-103 -104 0
-201 -202 0
-201 -203 0
-201 -204 0
-202 -203 0
-202 -204 0
-203 -204 0
-301 -302 0
-301 -303 0
-301 -304 0
-302 -303 0
-302 -304 0
-303 -304 0
-401 -402 0
-401 -403 0
-401 -404 0
-402 -403 0
-402 -404 0
-403 -404 0
-501 -502 0
-501 -503 0
-501 -504 0
-502 -503 0
-502 -504 0
-503 -504 0
-601 -602 0
-601 -603 0
-601 -604 0
-602 -603 0
-602 -604 0
-603 -604 0
-701 -702 0
-701 -703 0
-701 -704 0
-702 -703 0
-702 -704 0
-703 -704 0
-801 -802 0
-801 -803 0
-801 -804 0
-802 -803 0
-802 -804 0
-803 -804 0
-901 -902 0
-901 -903 0
-901 -904 0
-902 -903 0
-902 -904 0
-903 -904 0
-1001 -1002 0
-1001 -1003 0
-1001 -1004 0
-1002 -1003 0
-1002 -1004 0
-1003 -1004 0
-1101 -1102 0
-1101 -1103 0
-1101 -1104 0
-1102 -1103 0
-1102 -1104 0
-1103 -1104 0
-1201 -1202 0
-1201 -1203 0
-1201 -1204 0
-1202 -1203 0
-1202 -1204 0
-1203 -1204 0
-1301 -1302 0
-1301 -1303 0
-1301 -1304 0
-1302 -1303 0
-1302 -1304 0
-1303 -1304 0
-1401 -1402 0
-1401 -1403 0
-1401 -1404 0
-1402 -1403 0
-1402 -1404 0
-1403 -1404 0
-1501 -1502 0
-1501 -1503 0
-1501 -1504 0
-1502 -1503 0
-1502 -1504 0
-1503 -1504 0
-1601 -1602 0
-1601 -1603 0
-1601 -1604 0
-1602 -1603 0
-1602 -1604 0
-1603 -1604 0
-1701 -1702 0
-1701 -1703 0
-1701 -1704 0
-1702 -1703 0
-1702 -1704 0
-1703 -1704 0
-1801 -1802 0
-1801 -1803 0
-1801 -1804 0
-1802 -1803 0
-1802 -1804 0
-1803 -1804 0
-1901 -1902 0
-1901 -1903 0
-1901 -1904 0
-1902 -1903 0
-1902 -1904 0
-1903 -1904 0
-2001 -2002 0
-2001 -2003 0
-2001 -2004 0
-2002 -2003 0
-2002 -2004 0
-2003 -2004 0
-2101 -2102 0
-2101 -2103 0
-2101 -2104 0
-2102 -2103 0
-2102 -2104 0
-2103 -2104 0
-2201 -2202 0
-2201 -2203 0
-2201 -2204 0
-2202 -2203 0
-2202 -2204 0
-2203 -2204 0
-2301 -2302 0
-2301 -2303 0
-2301 -2304 0
-2302 -2303 0
-2302 -2304 0
-2303 -2304 0
-2401 -2402 0
-2401 -2403 0
-2401 -2404 0
-2402 -2403 0
-2402 -2404 0
-2403 -2404 0
-2501 -2502 0
-2501 -2503 0
-2501 -2504 0
-2502 -2503 0
-2502 -2504 0
-2503 -2504 0
-2601 -2602 0
-2601 -2603 0
-2601 -2604 0
-2602 -2603 0
-2602 -2604 0
-2603 -2604 0
-2701 -2702 0
-2701 -2703 0
-2701 -2704 0
-2702 -2703 0
-2702 -2704 0
-2703 -2704 0
-2801 -2802 0
-2801 -2803 0
-2801 -2804 0
-2802 -2803 0
-2802 -2804 0
-2803 -2804 0
-2901 -2902 0
-2901 -2903 0
-2901 -2904 0
-2902 -2903 0
-2902 -2904 0
-2903 -2904 0
-3001 -3002 0
-3001 -3003 0
-3001 -3004 0
-3002 -3003 0
-3002 -3004 0
-3003 -3004 0
-3101 -3102 0
-3101 -3103 0
-3101 -3104 0
-3102 -3103 0
-3102 -3104 0
-3103 -3104 0
-3201 -3202 0
-3201 -3203 0
-3201 -3204 0
-3202 -3203 0
-3202 -3204 0
-3203 -3204 0
-3301 -3302 0
-3301 -3303 0
-3301 -3304 0
-3302 -3303 0
-3302 -3304 0
-3303 -3304 0
-3401 -3402 0
-3401 -3403 0
-3401 -3404 0
-3402 -3403 0
-3402 -3404 0
-3403 -3404 0
-3501 -3502 0
-3501 -3503 0
-3501 -3504 0
-3502 -3503 0
-3502 -3504 0
-3503 -3504 0
-3601 -3602 0
-3601 -3603 0
-3601 -3604 0
-3602 -3603 0
-3602 -3604 0
-3603 -3604 0
-3701 -3702 0
-3701 -3703 0
-3701 -3704 0
-3702 -3703 0
-3702 -3704 0
-3703 -3704 0
-3801 -3802 0
-3801 -3803 0
-3801 -3804 0
-3802 -3803 0
-3802 -3804 0
-3803 -3804 0
-3901 -3902 0
-3901 -3903 0
-3901 -3904 0
-3902 -3903 0
-3902 -3904 0
-3903 -3904 0
-4001 -4002 0
-4001 -4003 0
-4001 -4004 0
-4002 -4003 0
-4002 -4004 0
-4003 -4004 0
-4101 -4102 0
-4101 -4103 0
-4101 -4104 0
-4102 -4103 0
-4102 -4104 0
-4103 -4104 0
-4201 -4202 0
-4201 -4203 0
-4201 -4204 0
-4202 -4203 0
-4202 -4204 0
-4203 -4204 0
-4301 -4302 0
-4301 -4303 0
-4301 -4304 0
-4302 -4303 0
-4302 -4304 0
-4303 -4304 0
-4401 -4402 0
-4401 -4403 0
-4401 -4404 0
-4402 -4403 0
-4402 -4404 0
-4403 -4404 0
-4501 -4502 0
-4501 -4503 0
-4501 -4504 0
-4502 -4503 0
-4502 -4504 0
-4503 -4504 0
-4601 -4602 0
-4601 -4603 0
-4601 -4604 0
-4602 -4603 0
-4602 -4604 0
-4603 -4604 0
-4701 -4702 0
-4701 -4703 0
-4701 -4704 0
-4702 -4703 0
-4702 -4704 0
-4703 -4704 0
-4801 -4802 0
-4801 -4803 0
-4801 -4804 0
-4802 -4803 0
-4802 -4804 0
-4803 -4804 0
-4901 -4902 0
-4901 -4903 0
-4901 -4904 0
-4902 -4903 0
-4902 -4904 0
-4903 -4904 0
-5001 -5002 0
-5001 -5003 0
-5001 -5004 0
-5002 -5003 0
-5002 -5004 0
-5003 -5004 0
-5101 -5102 0
-5101 -5103 0
-5101 -5104 0
-5102 -5103 0
-5102 -5104 0
-5103 -5104 0
-5201 -5202 0
-5201 -5203 0
-5201 -5204 0
-5202 -5203 0
-5202 -5204 0
-5203 -5204 0
-5301 -5302 0
-5301 -5303 0
-5301 -5304 0
-5302 -5303 0
-5302 -5304 0
-5303 -5304 0
-5401 -5402 0
-5401 -5403 0
-5401 -5404 0
-5402 -5403 0
-5402 -5404 0
-5403 -5404 0
-5501 -5502 0
-5501 -5503 0
-5501 -5504 0
-5502 -5503 0
-5502 -5504 0
-5503 -5504 0
-5601 -5602 0
-5601 -5603 0
-5601 -5604 0
-5602 -5603 0
-5602 -5604 0
-5603 -5604 0
-5701 -5702 0
-5701 -5703 0
-5701 -5704 0
-5702 -5703 0
-5702 -5704 0
-5703 -5704 0
-5801 -5802 0
-5801 -5803 0
-5801 -5804 0
-5802 -5803 0
-5802 -5804 0
-5803 -5804 0
-5901 -5902 0
-5901 -5903 0
-5901 -5904 0
-5902 -5903 0
-5902 -5904 0
-5903 -5904 0
-6001 -6002 0
-6001 -6003 0
-6001 -6004 0
-6002 -6003 0
-6002 -6004 0
-6003 -6004 0
-6101 -6102 0
-6101 -6103 0
-6101 -6104 0
-6102 -6103 0
-6102 -6104 0
-6103 -6104 0
-6201 -6202 0
-6201 -6203 0
-6201 -6204 0
-6202 -6203 0
-6202 -6204 0
-6203 -6204 0
-6301 -6302 0
-6301 -6303 0
-6301 -6304 0
-6302 -6303 0
-6302 -6304 0
-6303 -6304 0
-6401 -6402 0
-6401 -6403 0
-6401 -6404 0
-6402 -6403 0
-6402 -6404 0
-6403 -6404 0
-6501 -6502 0
-6501 -6503 0
-6501 -6504 0
-6502 -6503 0
-6502 -6504 0
-6503 -6504 0
-6601 -6602 0
-6601 -6603 0
-6601 -6604 0
-6602 -6603 0
-6602 -6604 0
-6603 -6604 0
-6701 -6702 0
-6701 -6703 0
-6701 -6704 0
-6702 -6703 0
-6702 -6704 0
-6703 -6704 0
-6801 -6802 0
-6801 -6803 0
-6801 -6804 0
-6802 -6803 0
-6802 -6804 0
-6803 -6804 0
-6901 -6902 0
-6901 -6903 0
-6901 -6904 0
-6902 -6903 0
-6902 -6904 0
-6903 -6904 0
-7001 -7002 0
-7001 -7003 0
-7001 -7004 0
-7002 -7003 0
-7002 -7004 0
-7003 -7004 0
-7101 -7102 0
-7101 -7103 0
-7101 -7104 0
-7102 -7103 0
-7102 -7104 0
-7103 -7104 0
-7201 -7202 0
-7201 -7203 0
-7201 -7204 0
-7202 -7203 0
-7202 -7204 0
-7203 -7204 0
-7301 -7302 0
-7301 -7303 0
-7301 -7304 0
-7302 -7303 0
-7302 -7304 0
-7303 -7304 0
-7401 -7402 0
-7401 -7403 0
-7401 -7404 0
-7402 -7403 0
-7402 -7404 0
-7403 -7404 0
-7501 -7502 0
-7501 -7503 0
-7501 -7504 0
-7502 -7503 0
-7502 -7504 0
-7503 -7504 0
-7601 -7602 0
-7601 -7603 0
-7601 -7604 0
-7602 -7603 0
-7602 -7604 0
-7603 -7604 0
-7701 -7702 0
-7701 -7703 0
-7701 -7704 0
-7702 -7703 0
-7702 -7704 0
-7703 -7704 0
-7801 -7802 0
-7801 -7803 0
-7801 -7804 0
-7802 -7803 0
-7802 -7804 0
-7803 -7804 0
-7901 -7902 0
-7901 -7903 0
-7901 -7904 0
-7902 -7903 0
-7902 -7904 0
-7903 -7904 0
-8001 -8002 0
-8001 -8003 0
-8001 -8004 0
-8002 -8003 0
-8002 -8004 0
-8003 -8004 0
-101 -4401 0
-102 -4402 0
-103 -4403 0
-104 -4404 0
-101 -5401 0
-102 -5402 0
-103 -5403 0
-104 -5404 0
-101 -6601 0
-102 -6602 0
-103 -6603 0
-104 -6604 0
-101 -6901 0
-102 -6902 0
-103 -6903 0
-104 -6904 0
-101 -7001 0
-102 -7002 0
-103 -7003 0
-104 -7004 0
-201 -901 0
-202 -902 0
-203 -903 0
-204 -904 0
-201 -3001 0
-202 -3002 0
-203 -3003 0
-204 -3004 0
-201 -3201 0
-202 -3202 0
-203 -3203 0
-204 -3204 0
-201 -4001 0
-202 -4002 0
-203 -4003 0
-204 -4004 0
-201 -4901 0
-202 -4902 0
-203 -4903 0
-204 -4904 0
-201 -5201 0
-202 -5202 0
-203 -5203 0
-204 -5204 0
-201 -5601 0
-202 -5602 0
-203 -5603 0
-204 -5604 0
-201 -6201 0
-202 -6202 0
-203 -6203 0
-204 -6204 0
-201 -6501 0
-202 -6502 0
-203 -6503 0
-204 -6504 0
-201 -6801 0
-202 -6802 0
-203 -6803 0
-204 -6804 0
-301 -801 0
-302 -802 0
-303 -803 0
-304 -804 0
-301 -901 0
-302 -902 0
-303 -903 0
-304 -904 0
-301 -2301 0
-302 -2302 0
-303 -2303 0
-304 -2304 0
-301 -2401 0
-302 -2402 0
-303 -2403 0
-304 -2404 0
-301 -4101 0
-302 -4102 0
-303 -4103 0
-304 -4104 0
-301 -4701 0
-302 -4702 0
-303 -4703 0
-304 -4704 0
-301 -4801 0
-302 -4802 0
-303 -4803 0
-304 -4804 0
-301 -7801 0
-302 -7802 0
-303 -7803 0
-304 -7804 0
-401 -1001 0
-402 -1002 0
-403 -1003 0
-404 -1004 0
-401 -1101 0
-402 -1102 0
-403 -1103 0
-404 -1104 0
-401 -2301 0
-402 -2302 0
-403 -2303 0
-404 -2304 0
-401 -2801 0
-402 -2802 0
-403 -2803 0
-404 -2804 0
-401 -3601 0
-402 -3602 0
-403 -3603 0
-404 -3604 0
-401 -4101 0
-402 -4102 0
-403 -4103 0
-404 -4104 0
-401 -5501 0
-402 -5502 0
-403 -5503 0
-404 -5504 0
-401 -7301 0
-402 -7302 0
-403 -7303 0
-404 -7304 0
-401 -7601 0
-402 -7602 0
-403 -7603 0
-404 -7604 0
-401 -8001 0
-402 -8002 0
-403 -8003 0
-404 -8004 0
-501 -601 0
-502 -602 0
-503 -603 0
-504 -604 0
-501 -1101 0
-502 -1102 0
-503 -1103 0
-504 -1104 0
-501 -1901 0
-502 -1902 0
-503 -1903 0
-504 -1904 0
-501 -2201 0
-502 -2202 0
-503 -2203 0
-504 -2204 0
-501 -3601 0
-502 -3602 0
-503 -3603 0
-504 -3604 0
-501 -7301 0
-502 -7302 0
-503 -7303 0
-504 -7304 0
-501 -7801 0
-502 -7802 0
-503 -7803 0
-504 -7804 0
-601 -4701 0
-602 -4702 0
-603 -4703 0
-604 -4704 0
-701 -3201 0
-702 -3202 0
-703 -3203 0
-704 -3204 0
-701 -5301 0
-702 -5302 0
-703 -5303 0
-704 -5304 0
-701 -5401 0
-702 -5402 0
-703 -5403 0
-704 -5404 0
-701 -6601 0
-702 -6602 0
-703 -6603 0
-704 -6604 0
-701 -7301 0
-702 -7302 0
-703 -7303 0
-704 -7304 0
-701 -7701 0
-702 -7702 0
-703 -7703 0
-704 -7704 0
-801 -1101 0
-802 -1102 0
-803 -1103 0
-804 -1104 0
-801 -3301 0
-802 -3302 0
-803 -3303 0
-804 -3304 0
-801 -3601 0
-802 -3602 0
-803 -3603 0
-804 -3604 0
-801 -3701 0
-802 -3702 0
-803 -3703 0
-804 -3704 0
-801 -4901 0
-802 -4902 0
-803 -4903 0
-804 -4904 0
-801 -5801 0
-802 -5802 0
-803 -5803 0
-804 -5804 0
-801 -6601 0
-802 -6602 0
-803 -6603 0
-804 -6604 0
-801 -6701 0
-802 -6702 0
-803 -6703 0
-804 -6704 0
-901 -2701 0
-902 -2702 0
-903 -2703 0
-904 -2704 0
-901 -3101 0
-902 -3102 0
-903 -3103 0
-904 -3104 0
-901 -3301 0
-902 -3302 0
-903 -3303 0
-904 -3304 0
-901 -5701 0
-902 -5702 0
-903 -5703 0
-904 -5704 0
-901 -7301 0
-902 -7302 0
-903 -7303 0
-904 -7304 0
-901 -7701 0
-902 -7702 0
-903 -7703 0
-904 -7704 0
-1001 -1101 0
-1002 -1102 0
-1003 -1103 0
-1004 -1104 0
-1001 -2901 0
-1002 -2902 0
-1003 -2903 0
-1004 -2904 0
-1001 -3201 0
-1002 -3202 0
-1003 -3203 0
-1004 -3204 0
-1001 -5001 0
-1002 -5002 0
-1003 -5003 0
-1004 -5004 0
-1001 -5601 0
-1002 -5602 0
-1003 -5603 0
-1004 -5604 0
-1001 -6901 0
-1002 -6902 0
-1003 -6903 0
-1004 -6904 0
-1001 -8001 0
-1002 -8002 0
-1003 -8003 0
-1004 -8004 0
-1101 -2601 0
-1102 -2602 0
-1103 -2603 0
-1104 -2604 0
-1101 -2901 0
-1102 -2902 0
-1103 -2903 0
-1104 -2904 0
-1101 -3101 0
-1102 -3102 0
-1103 -3103 0
-1104 -3104 0
-1101 -5701 0
-1102 -5702 0
-1103 -5703 0
-1104 -5704 0
-1101 -7301 0
-1102 -7302 0
-1103 -7303 0
-1104 -7304 0
-1201 -1301 0
-1202 -1302 0
-1203 -1303 0
-1204 -1304 0
-1201 -1701 0
-1202 -1702 0
-1203 -1703 0
-1204 -1704 0
-1201 -3001 0
-1202 -3002 0
-1203 -3003 0
-1204 -3004 0
-1201 -3601 0
-1202 -3602 0
-1203 -3603 0
-1204 -3604 0
-1201 -4701 0
-1202 -4702 0
-1203 -4703 0
-1204 -4704 0
-1201 -5201 0
-1202 -5202 0
-1203 -5203 0
-1204 -5204 0
-1201 -7101 0
-1202 -7102 0
-1203 -7103 0
-1204 -7104 0
-1301 -2001 0
-1302 -2002 0
-1303 -2003 0
-1304 -2004 0
-1301 -2901 0
-1302 -2902 0
-1303 -2903 0
-1304 -2904 0
-1301 -3101 0
-1302 -3102 0
-1303 -3103 0
-1304 -3104 0
-1301 -3601 0
-1302 -3602 0
-1303 -3603 0
-1304 -3604 0
-1301 -5101 0
-1302 -5102 0
-1303 -5103 0
-1304 -5104 0
-1301 -7001 0
-1302 -7002 0
-1303 -7003 0
-1304 -7004 0
-1301 -7801 0
-1302 -7802 0
-1303 -7803 0
-1304 -7804 0
-1401 -2101 0
-1402 -2102 0
-1403 -2103 0
-1404 -2104 0
-1401 -6001 0
-1402 -6002 0
-1403 -6003 0
-1404 -6004 0
-1401 -6301 0
-1402 -6302 0
-1403 -6303 0
-1404 -6304 0
-1401 -7401 0
-1402 -7402 0
-1403 -7403 0
-1404 -7404 0
-1501 -2901 0
-1502 -2902 0
-1503 -2903 0
-1504 -2904 0
-1501 -4901 0
-1502 -4902 0
-1503 -4903 0
-1504 -4904 0
-1501 -5601 0
-1502 -5602 0
-1503 -5603 0
-1504 -5604 0
-1501 -7201 0
-1502 -7202 0
-1503 -7203 0
-1504 -7204 0
-1601 -1801 0
-1602 -1802 0
-1603 -1803 0
-1604 -1804 0
-1601 -2901 0
-1602 -2902 0
-1603 -2903 0
-1604 -2904 0
-1601 -3201 0
-1602 -3202 0
-1603 -3203 0
-1604 -3204 0
-1601 -3901 0
-1602 -3902 0
-1603 -3903 0
-1604 -3904 0
-1601 -4201 0
-1602 -4202 0
-1603 -4203 0
-1604 -4204 0
-1601 -4901 0
-1602 -4902 0
-1603 -4903 0
-1604 -4904 0
-1601 -5601 0
-1602 -5602 0
-1603 -5603 0
-1604 -5604 0
-1601 -6701 0
-1602 -6702 0
-1603 -6703 0
-1604 -6704 0
-1701 -1801 0
-1702 -1802 0
-1703 -1803 0
-1704 -1804 0
-1701 -2201 0
-1702 -2202 0
-1703 -2203 0
-1704 -2204 0
-1701 -2501 0
-1702 -2502 0
-1703 -2503 0
-1704 -2504 0
-1701 -2601 0
-1702 -2602 0
-1703 -2603 0
-1704 -2604 0
-1701 -3701 0
-1702 -3702 0
-1703 -3703 0
-1704 -3704 0
-1701 -4001 0
-1702 -4002 0
-1703 -4003 0
-1704 -4004 0
-1701 -4401 0
-1702 -4402 0
-1703 -4403 0
-1704 -4404 0
-1701 -4801 0
-1702 -4802 0
-1703 -4803 0
-1704 -4804 0
-1701 -6301 0
-1702 -6302 0
-1703 -6303 0
-1704 -6304 0
-1701 -6601 0
-1702 -6602 0
-1703 -6603 0
-1704 -6604 0
-1701 -6801 0
-1702 -6802 0
-1703 -6803 0
-1704 -6804 0
-1701 -7701 0
-1702 -7702 0
-1703 -7703 0
-1704 -7704 0
-1801 -2201 0
-1802 -2202 0
-1803 -2203 0
-1804 -2204 0
-1801 -2301 0
-1802 -2302 0
-1803 -2303 0
-1804 -2304 0
-1801 -2901 0
-1802 -2902 0
-1803 -2903 0
-1804 -2904 0
-1801 -3201 0
-1802 -3202 0
-1803 -3203 0
-1804 -3204 0
-1801 -5101 0
-1802 -5102 0
-1803 -5103 0
-1804 -5104 0
-1801 -6401 0
-1802 -6402 0
-1803 -6403 0
-1804 -6404 0
-1801 -7001 0
-1802 -7002 0
-1803 -7003 0
-1804 -7004 0
-1801 -7401 0
-1802 -7402 0
-1803 -7403 0
-1804 -7404 0
-1901 -5801 0
-1902 -5802 0
-1903 -5803 0
-1904 -5804 0
-1901 -6701 0
-1902 -6702 0
-1903 -6703 0
-1904 -6704 0
-1901 -7701 0
-1902 -7702 0
-1903 -7703 0
-1904 -7704 0
-2001 -2501 0
-2002 -2502 0
-2003 -2503 0
-2004 -2504 0
-2001 -3401 0
-2002 -3402 0
-2003 -3403 0
-2004 -3404 0
-2001 -3501 0
-2002 -3502 0
-2003 -3503 0
-2004 -3504 0
-2001 -4601 0
-2002 -4602 0
-2003 -4603 0
-2004 -4604 0
-2001 -6501 0
-2002 -6502 0
-2003 -6503 0
-2004 -6504 0
-2001 -6601 0
-2002 -6602 0
-2003 -6603 0
-2004 -6604 0
-2101 -3201 0
-2102 -3202 0
-2103 -3203 0
-2104 -3204 0
-2101 -5301 0
-2102 -5302 0
-2103 -5303 0
-2104 -5304 0
-2201 -2401 0
-2202 -2402 0
-2203 -2403 0
-2204 -2404 0
-2201 -2801 0
-2202 -2802 0
-2203 -2803 0
-2204 -2804 0
-2201 -4001 0
-2202 -4002 0
-2203 -4003 0
-2204 -4004 0
-2201 -4301 0
-2202 -4302 0
-2203 -4303 0
-2204 -4304 0
-2201 -6401 0
-2202 -6402 0
-2203 -6403 0
-2204 -6404 0
-2201 -6501 0
-2202 -6502 0
-2203 -6503 0
-2204 -6504 0
-2201 -7901 0
-2202 -7902 0
-2203 -7903 0
-2204 -7904 0
-2301 -2501 0
-2302 -2502 0
-2303 -2503 0
-2304 -2504 0
-2301 -2701 0
-2302 -2702 0
-2303 -2703 0
-2304 -2704 0
-2301 -3001 0
-2302 -3002 0
-2303 -3003 0
-2304 -3004 0
-2301 -3401 0
-2302 -3402 0
-2303 -3403 0
-2304 -3404 0
-2301 -4101 0
-2302 -4102 0
-2303 -4103 0
-2304 -4104 0
-2301 -4901 0
-2302 -4902 0
-2303 -4903 0
-2304 -4904 0
-2301 -6001 0
-2302 -6002 0
-2303 -6003 0
-2304 -6004 0
-2301 -7201 0
-2302 -7202 0
-2303 -7203 0
-2304 -7204 0
-2301 -7701 0
-2302 -7702 0
-2303 -7703 0
-2304 -7704 0
-2301 -7901 0
-2302 -7902 0
-2303 -7903 0
-2304 -7904 0
-2401 -3001 0
-2402 -3002 0
-2403 -3003 0
-2404 -3004 0
-2401 -3801 0
-2402 -3802 0
-2403 -3803 0
-2404 -3804 0
-2401 -4401 0
-2402 -4402 0
-2403 -4403 0
-2404 -4404 0
-2401 -4701 0
-2402 -4702 0
-2403 -4703 0
-2404 -4704 0
-2401 -7301 0
-2402 -7302 0
-2403 -7303 0
-2404 -7304 0
-2401 -7401 0
-2402 -7402 0
-2403 -7403 0
-2404 -7404 0
-2501 -3201 0
-2502 -3202 0
-2503 -3203 0
-2504 -3204 0
-2501 -5401 0
-2502 -5402 0
-2503 -5403 0
-2504 -5404 0
-2501 -6801 0
-2502 -6802 0
-2503 -6803 0
-2504 -6804 0
-2601 -3901 0
-2602 -3902 0
-2603 -3903 0
-2604 -3904 0
-2601 -5501 0
-2602 -5502 0
-2603 -5503 0
-2604 -5504 0
-2601 -5801 0
-2602 -5802 0
-2603 -5803 0
-2604 -5804 0
-2601 -6101 0
-2602 -6102 0
-2603 -6103 0
-2604 -6104 0
-2601 -6301 0
-2602 -6302 0
-2603 -6303 0
-2604 -6304 0
-2601 -6901 0
-2602 -6902 0
-2603 -6903 0
-2604 -6904 0
-2701 -4001 0
-2702 -4002 0
-2703 -4003 0
-2704 -4004 0
-2701 -4501 0
-2702 -4502 0
-2703 -4503 0
-2704 -4504 0
-2701 -5001 0
-2702 -5002 0
-2703 -5003 0
-2704 -5004 0
-2701 -5601 0
-2702 -5602 0
-2703 -5603 0
-2704 -5604 0
-2701 -6001 0
-2702 -6002 0
-2703 -6003 0
-2704 -6004 0
-2701 -7001 0
-2702 -7002 0
-2703 -7003 0
-2704 -7004 0
-2701 -7101 0
-2702 -7102 0
-2703 -7103 0
-2704 -7104 0
-2801 -4301 0
-2802 -4302 0
-2803 -4303 0
-2804 -4304 0
-2801 -4401 0
-2802 -4402 0
-2803 -4403 0
-2804 -4404 0
-2801 -5101 0
-2802 -5102 0
-2803 -5103 0
-2804 -5104 0
-2801 -6101 0
-2802 -6102 0
-2803 -6103 0
-2804 -6104 0
-2801 -6201 0
-2802 -6202 0
-2803 -6203 0
-2804 -6204 0
-2801 -6601 0
-2802 -6602 0
-2803 -6603 0
-2804 -6604 0
-2801 -6801 0
-2802 -6802 0
-2803 -6803 0
-2804 -6804 0
-2801 -7901 0
-2802 -7902 0
-2803 -7903 0
-2804 -7904 0
-2901 -3001 0
-2902 -3002 0
-2903 -3003 0
-2904 -3004 0
-2901 -4001 0
-2902 -4002 0
-2903 -4003 0
-2904 -4004 0
-2901 -4401 0
-2902 -4402 0
-2903 -4403 0
-2904 -4404 0
-2901 -4701 0
-2902 -4702 0
-2903 -4703 0
-2904 -4704 0
-2901 -5301 0
-2902 -5302 0
-2903 -5303 0
-2904 -5304 0
-2901 -6001 0
-2902 -6002 0
-2903 -6003 0
-2904 -6004 0
-2901 -6501 0
-2902 -6502 0
-2903 -6503 0
-2904 -6504 0
-3001 -3501 0
-3002 -3502 0
-3003 -3503 0
-3004 -3504 0
-3001 -3701 0
-3002 -3702 0
-3003 -3703 0
-3004 -3704 0
-3001 -4701 0
-3002 -4702 0
-3003 -4703 0
-3004 -4704 0
-3001 -5201 0
-3002 -5202 0
-3003 -5203 0
-3004 -5204 0
-3001 -5401 0
-3002 -5402 0
-3003 -5403 0
-3004 -5404 0
-3001 -6101 0
-3002 -6102 0
-3003 -6103 0
-3004 -6104 0
-3001 -7601 0
-3002 -7602 0
-3003 -7603 0
-3004 -7604 0
-3101 -3201 0
-3102 -3202 0
-3103 -3203 0
-3104 -3204 0
-3101 -3601 0
-3102 -3602 0
-3103 -3603 0
-3104 -3604 0
-3101 -4801 0
-3102 -4802 0
-3103 -4803 0
-3104 -4804 0
-3101 -5101 0
-3102 -5102 0
-3103 -5103 0
-3104 -5104 0
-3201 -5001 0
-3202 -5002 0
-3203 -5003 0
-3204 -5004 0
-3201 -5401 0
-3202 -5402 0
-3203 -5403 0
-3204 -5404 0
-3201 -5501 0
-3202 -5502 0
-3203 -5503 0
-3204 -5504 0
-3201 -7301 0
-3202 -7302 0
-3203 -7303 0
-3204 -7304 0
-3201 -7601 0
-3202 -7602 0
-3203 -7603 0
-3204 -7604 0
-3201 -7801 0
-3202 -7802 0
-3203 -7803 0
-3204 -7804 0
-3301 -5201 0
-3302 -5202 0
-3303 -5203 0
-3304 -5204 0
-3301 -5901 0
-3302 -5902 0
-3303 -5903 0
-3304 -5904 0
-3301 -6601 0
-3302 -6602 0
-3303 -6603 0
-3304 -6604 0
-3301 -7401 0
-3302 -7402 0
-3303 -7403 0
-3304 -7404 0
-3401 -4201 0
-3402 -4202 0
-3403 -4203 0
-3404 -4204 0
-3401 -8001 0
-3402 -8002 0
-3403 -8003 0
-3404 -8004 0
-3501 -4001 0
-3502 -4002 0
-3503 -4003 0
-3504 -4004 0
-3501 -4601 0
-3502 -4602 0
-3503 -4603 0
-3504 -4604 0
-3501 -5301 0
-3502 -5302 0
-3503 -5303 0
-3504 -5304 0
-3501 -6901 0
-3502 -6902 0
-3503 -6903 0
-3504 -6904 0
-3501 -7901 0
-3502 -7902 0
-3503 -7903 0
-3504 -7904 0
-3601 -5201 0
-3602 -5202 0
-3603 -5203 0
-3604 -5204 0
-3601 -6801 0
-3602 -6802 0
-3603 -6803 0
-3604 -6804 0
-3601 -7301 0
-3602 -7302 0
-3603 -7303 0
-3604 -7304 0
-3701 -5101 0
-3702 -5102 0
-3703 -5103 0
-3704 -5104 0
-3701 -6001 0
-3702 -6002 0
-3703 -6003 0
-3704 -6004 0
-3701 -6401 0
-3702 -6402 0
-3703 -6403 0
-3704 -6404 0
-3701 -7301 0
-3702 -7302 0
-3703 -7303 0
-3704 -7304 0
-3701 -7401 0
-3702 -7402 0
-3703 -7403 0
-3704 -7404 0
-3801 -4101 0
-3802 -4102 0
-3803 -4103 0
-3804 -4104 0
-3801 -4401 0
-3802 -4402 0
-3803 -4403 0
-3804 -4404 0
-3801 -5001 0
-3802 -5002 0
-3803 -5003 0
-3804 -5004 0
-3801 -6201 0
-3802 -6202 0
-3803 -6203 0
-3804 -6204 0
-3901 -4401 0
-3902 -4402 0
-3903 -4403 0
-3904 -4404 0
-3901 -5401 0
-3902 -5402 0
-3903 -5403 0
-3904 -5404 0
-3901 -5501 0
-3902 -5502 0
-3903 -5503 0
-3904 -5504 0
-3901 -5901 0
-3902 -5902 0
-3903 -5903 0
-3904 -5904 0
-3901 -6101 0
-3902 -6102 0
-3903 -6103 0
-3904 -6104 0
-3901 -6301 0
-3902 -6302 0
-3903 -6303 0
-3904 -6304 0
-3901 -7301 0
-3902 -7302 0
-3903 -7303 0
-3904 -7304 0
-4001 -6501 0
-4002 -6502 0
-4003 -6503 0
-4004 -6504 0
-4001 -7501 0
-4002 -7502 0
-4003 -7503 0
-4004 -7504 0
-4101 -4901 0
-4102 -4902 0
-4103 -4903 0
-4104 -4904 0
-4101 -6901 0
-4102 -6902 0
-4103 -6903 0
-4104 -6904 0
-4101 -7301 0
-4102 -7302 0
-4103 -7303 0
-4104 -7304 0
-4101 -7401 0
-4102 -7402 0
-4103 -7403 0
-4104 -7404 0
-4201 -4801 0
-4202 -4802 0
-4203 -4803 0
-4204 -4804 0
-4201 -5701 0
-4202 -5702 0
-4203 -5703 0
-4204 -5704 0
-4201 -7501 0
-4202 -7502 0
-4203 -7503 0
-4204 -7504 0
-4301 -4801 0
-4302 -4802 0
-4303 -4803 0
-4304 -4804 0
-4301 -7501 0
-4302 -7502 0
-4303 -7503 0
-4304 -7504 0
-4401 -4501 0
-4402 -4502 0
-4403 -4503 0
-4404 -4504 0
-4401 -5901 0
-4402 -5902 0
-4403 -5903 0
-4404 -5904 0
-4401 -7601 0
-4402 -7602 0
-4403 -7603 0
-4404 -7604 0
-4401 -7801 0
-4402 -7802 0
-4403 -7803 0
-4404 -7804 0
-4601 -8001 0
-4602 -8002 0
-4603 -8003 0
-4604 -8004 0
-4701 -5601 0
-4702 -5602 0
-4703 -5603 0
-4704 -5604 0
-4701 -7501 0
-4702 -7502 0
-4703 -7503 0
-4704 -7504 0
-4901 -5301 0
-4902 -5302 0
-4903 -5303 0
-4904 -5304 0
-4901 -7501 0
-4902 -7502 0
-4903 -7503 0
-4904 -7504 0
-4901 -7701 0
-4902 -7702 0
-4903 -7703 0
-4904 -7704 0
-5001 -5501 0
-5002 -5502 0
-5003 -5503 0
-5004 -5504 0
-5001 -7701 0
-5002 -7702 0
-5003 -7703 0
-5004 -7704 0
-5001 -8001 0
-5002 -8002 0
-5003 -8003 0
-5004 -8004 0
-5101 -5901 0
-5102 -5902 0
-5103 -5903 0
-5104 -5904 0
-5201 -5901 0
-5202 -5902 0
-5203 -5903 0
-5204 -5904 0
-5301 -6501 0
-5302 -6502 0
-5303 -6503 0
-5304 -6504 0
-5301 -7201 0
-5302 -7202 0
-5303 -7203 0
-5304 -7204 0
-5301 -7401 0
-5302 -7402 0
-5303 -7403 0
-5304 -7404 0
-5301 -7801 0
-5302 -7802 0
-5303 -7803 0
-5304 -7804 0
-5401 -6601 0
-5402 -6602 0
-5403 -6603 0
-5404 -6604 0
-5401 -7301 0
-5402 -7302 0
-5403 -7303 0
-5404 -7304 0
-5401 -7401 0
-5402 -7402 0
-5403 -7403 0
-5404 -7404 0
-5501 -5901 0
-5502 -5902 0
-5503 -5903 0
-5504 -5904 0
-5501 -6401 0
-5502 -6402 0
-5503 -6403 0
-5504 -6404 0
-5501 -7401 0
-5502 -7402 0
-5503 -7403 0
-5504 -7404 0
-5601 -6001 0
-5602 -6002 0
-5603 -6003 0
-5604 -6004 0
-5601 -6401 0
-5602 -6402 0
-5603 -6403 0
-5604 -6404 0
-5601 -6601 0
-5602 -6602 0
-5603 -6603 0
-5604 -6604 0
-5601 -6701 0
-5602 -6702 0
-5603 -6703 0
-5604 -6704 0
-5601 -7801 0
-5602 -7802 0
-5603 -7803 0
-5604 -7804 0
-5701 -5801 0
-5702 -5802 0
-5703 -5803 0
-5704 -5804 0
-5801 -6101 0
-5802 -6102 0
-5803 -6103 0
-5804 -6104 0
-5801 -6601 0
-5802 -6602 0
-5803 -6603 0
-5804 -6604 0
-5801 -7901 0
-5802 -7902 0
-5803 -7903 0
-5804 -7904 0
-5901 -6601 0
-5902 -6602 0
-5903 -6603 0
-5904 -6604 0
-6101 -6401 0
-6102 -6402 0
-6103 -6403 0
-6104 -6404 0
-6101 -6701 0
-6102 -6702 0
-6103 -6703 0
-6104 -6704 0
-6101 -7601 0
-6102 -7602 0
-6103 -7603 0
-6104 -7604 0
-6101 -8001 0
-6102 -8002 0
-6103 -8003 0
-6104 -8004 0
-6201 -7201 0
-6202 -7202 0
-6203 -7203 0
-6204 -7204 0
-6301 -7301 0
-6302 -7302 0
-6303 -7303 0
-6304 -7304 0
-6301 -7701 0
-6302 -7702 0
-6303 -7703 0
-6304 -7704 0
-6401 -6701 0
-6402 -6702 0
-6403 -6703 0
-6404 -6704 0
-6401 -7001 0
-6402 -7002 0
-6403 -7003 0
-6404 -7004 0
-6401 -7101 0
-6402 -7102 0
-6403 -7103 0
-6404 -7104 0
-6401 -7301 0
-6402 -7302 0
-6403 -7303 0
-6404 -7304 0
-6401 -7701 0
-6402 -7702 0
-6403 -7703 0
-6404 -7704 0
-6501 -7101 0
-6502 -7102 0
-6503 -7103 0
-6504 -7104 0
-6501 -7801 0
-6502 -7802 0
-6503 -7803 0
-6504 -7804 0
-6601 -7401 0
-6602 -7402 0
-6603 -7403 0
-6604 -7404 0
-6601 -7701 0
-6602 -7702 0
-6603 -7703 0
-6604 -7704 0
-6901 -7001 0
-6902 -7002 0
-6903 -7003 0
-6904 -7004 0
-6901 -7701 0
-6902 -7702 0
-6903 -7703 0
-6904 -7704 0
-7001 -7201 0
-7002 -7202 0
-7003 -7203 0
-7004 -7204 0
-7201 -7901 0
-7202 -7902 0
-7203 -7903 0
-7204 -7904 0
-7301 -7401 0
-7302 -7402 0
-7303 -7403 0
-7304 -7404 0
-7301 -7801 0
-7302 -7802 0
-7303 -7803 0
-7304 -7804 0
-7701 -8001 0
-7702 -8002 0
-7703 -8003 0
-7704 -8004 0
